20170607 70 0 0 0
20160429 60 0 0 0
20150515 50 0 0 0
20130524 50 0 0 0
20120531 150 0 0 0
20110511 100 0 0 0
20100416 50 5000 0 0
20090410 30 5000 0 0
20080926 100 10000 0 0
20080328 200 0 0 0
20070406 0 10000 0 0
20060921 0 10000 0 0
20051017 0 8000 0 0
20050811 0 2500 0 0
20050603 100 10000 0 0
